5
1 100 100
2 80 170
3 85 20
4 105 40
5 65 5
6 90 170
7 95 105
8 90 15
9 60 175
10 80 25
11 75 140
12 70 10
13 90 110
14 90 30
15 95 10
16 75 90
17 55 120
18 85 125
19 60 110
20 120 100
21 110 190
22 40 60
23 175 30
24 30 150
25 150 170